Instance name:    bar-n100-1.txt
Authors:          PDPTW Solver
Date:             2026-01-16
Reference:        LNS with SA/RTR
Solution: 0;6;753.000;60.00 s
Route 1 :  26 76 30 33 80 7 57 39 20 83 89 24 70 74 1 51
Route 2 :  29 21 71 27 47 79 11 22 97 77 72 6 61 25 56 75 23 73
Route 3 :  14 15 64 49 45 43 65 4 99 46 95 96 54 93 37 87
Route 4 :  13 63 48 42 98 41 91 12 92 18 62 68 8 3 58 53
Route 5 :  31 44 35 81 5 55 32 82 19 85 69 94 28 38 88 78
Route 6 :  10 60 40 17 67 2 9 59 34 52 84 16 36 66 50 90 100 86
